SLURM_JOB_ID: 55286885
SLURM_JOB_USER: vsc34888
SLURM_JOB_ACCOUNT: lp_elect_gen_modeling
SLURM_JOB_NAME: RTS24_full_MILP_DC
SLURM_CLUSTER_NAME: genius
SLURM_JOB_PARTITION: batch
SLURM_NNODES: 1
SLURM_NODELIST: r22i27n02
SLURM_JOB_CPUS_PER_NODE: 36
Date: Thu Oct  5 09:20:20 CEST 2023
Walltime: 01-12:00:00
========================================================================
Activation OK
/var/spool/slurmd/job55286885/slurm_script: line 16: cd: /scratch/leuven/348/vsc34888/JointResearch/05. Models/06.Benchmarking/A.The_full_year_MILP: No such file or directory
Starting runs

 #### Academic research license - for non-commercial use only #### 

RTS24
/lustre1/scratch/348/vsc34888/JointResearch/05.Models/06.Benchmarking/A.The_full_year_MILP
gurobi
['oSN_Main_DCOPF.py', '--case', 'RTS24']
Namespace(case='RTS24', dir='/lustre1/scratch/348/vsc34888/JointResearch/05.Models/06.Benchmarking/A.The_full_year_MILP', solver='gurobi')
Namespace(case='RTS24', dir='/lustre1/scratch/348/vsc34888/JointResearch/05.Models/06.Benchmarking/A.The_full_year_MILP', solver='gurobi')
Reading    input data                 ...  0 s
Setting up input data                 ...  12 s
Generating objective function         ...  10 s
Generating operation & investment     ...  0 s
Generating balance                    ...  29 s
Generating storage operation          ...  0 s
Generating generation commitment      ...  16 s
Generating generation capacity        ...  4 s
Generating network    capacity        ...  23 s
Generating network    constraints     ...  50 s
Econometric analysis  constraints     ...  0 s
Set parameter Username
Set parameter TokenServer to value "SET-S-ME-LM3.luna.kuleuven.be"
Read LP format model from file /tmp/tmpvmfcw07a.pyomo.lp
Reading time = 10.56 seconds
x1: 3887523 rows, 2254155 columns, 10466196 nonzeros
Set parameter QCPDual to value 1
Set parameter LogFile to value "/lustre1/scratch/348/vsc34888/JointResearch/05.Models/06.Benchmarking/A.The_full_year_MILP/RTS24/openStarNet_RTS24.log"
Set parameter Method to value 2
Set parameter MIPFocus to value 1
Set parameter Presolve to value 2
Set parameter RINS to value 100
Set parameter MIPGap to value 0.01
Set parameter Threads to value 36
Set parameter TimeLimit to value 604800
Set parameter IterationLimit to value 760000000
Gurobi Optimizer version 9.5.0 build v9.5.0rc5 (linux64)
Thread count: 36 physical cores, 36 logical processors, using up to 36 threads
Optimize a model with 3887523 rows, 2254155 columns and 10466196 nonzeros
Model fingerprint: 0x1ab501ce
Variable types: 2254116 continuous, 39 integer (39 binary)
Coefficient statistics:
  Matrix range     [2e-04, 3e+02]
  Objective range  [1e+00, 1e+00]
  Bounds range     [4e-04, 3e+00]
  RHS range        [4e-04, 3e+00]
Presolve removed 1354107 rows and 339479 columns (presolve time = 5s) ...
Presolve removed 1808355 rows and 793727 columns (presolve time = 10s) ...
Presolve removed 1808355 rows and 793727 columns (presolve time = 15s) ...
Presolve removed 1903239 rows and 973167 columns (presolve time = 21s) ...
Presolve removed 1903239 rows and 973167 columns (presolve time = 25s) ...
Presolve removed 1903239 rows and 973167 columns (presolve time = 30s) ...
Presolve removed 1903239 rows and 973167 columns
Presolve time: 33.92s
Presolved: 1984284 rows, 1280988 columns, 6911790 nonzeros
Variable types: 1280949 continuous, 39 integer (39 binary)
Root relaxation presolve removed 0 rows and 0 columns (presolve time = 6s) ...
Root relaxation presolved: 1984284 rows, 1280988 columns, 6911790 nonzeros

Root barrier log...

Ordering time: 0.66s

Barrier statistics:
 Dense cols : 39
 AA' NZ     : 1.468e+07
 Factor NZ  : 5.037e+07 (roughly 1.7 GB of memory)
 Factor Ops : 1.687e+09 (less than 1 second per iteration)
 Threads    : 35

                  Objective                Residual
Iter       Primal          Dual         Primal    Dual     Compl     Time
   0   6.55457784e+05 -4.07868041e+07  4.69e+00 1.38e+00  3.00e+01    57s
   1   8.75070593e+04 -1.13261485e+07  4.85e-01 3.48e-08  4.02e+00    58s
   2   2.66964419e+04 -1.43293429e+06  1.79e-02 6.64e-09  3.73e-01    60s
   3   1.24562108e+04 -1.40653252e+05  5.81e-04 5.19e-10  3.79e-02    61s
   4   2.57418276e+03 -1.81971605e+04  9.40e-05 5.18e-11  5.14e-03    63s
   5   6.76659290e+02 -5.45720056e+03  1.78e-05 1.54e-11  1.52e-03    64s
   6   2.77839350e+02 -1.63186139e+03  3.22e-06 4.68e-12  4.73e-04    65s
   7   1.87537870e+02 -6.34013344e+02  1.28e-06 1.64e-12  2.03e-04    66s
   8   1.15125261e+02 -2.91034727e+02  3.66e-07 8.79e-13  1.00e-04    67s
   9   8.38567043e+01 -8.94593358e+01  1.73e-07 3.61e-13  4.29e-05    68s
  10   5.50957179e+01 -2.27996952e+01  6.43e-08 1.21e-13  1.93e-05    69s
  11   4.54376130e+01 -8.23981502e-01  3.48e-08 8.88e-14  1.14e-05    71s
  12   4.07658120e+01  1.31403189e+01  2.18e-08 9.77e-14  6.84e-06    72s
  13   3.85412256e+01  1.83901799e+01  1.59e-08 1.10e-13  4.99e-06    73s
  14   3.63924927e+01  2.22171932e+01  1.03e-08 1.63e-13  3.51e-06    74s
  15   3.51089782e+01  2.48498961e+01  7.00e-09 7.64e-14  2.54e-06    75s
  16   3.43834505e+01  2.84456946e+01  5.17e-09 9.59e-14  1.47e-06    76s
  17   3.38192589e+01  2.94401303e+01  3.81e-09 1.90e-13  1.08e-06    77s
  18   3.34307163e+01  2.99523657e+01  2.83e-09 9.41e-14  8.61e-07    79s
  19   3.32308039e+01  3.08920551e+01  2.35e-09 1.35e-13  5.79e-07    80s
  20   3.29745384e+01  3.11918818e+01  1.78e-09 7.28e-14  4.41e-07    82s
  21   3.27582177e+01  3.16021134e+01  1.26e-09 1.81e-13  2.86e-07    84s
  22   3.26108925e+01  3.17829140e+01  9.31e-10 2.77e-13  2.05e-07    86s
  23   3.25341488e+01  3.19384490e+01  7.56e-10 1.24e-13  1.47e-07    88s
  24   3.24704516e+01  3.19869285e+01  6.10e-10 1.05e-13  1.20e-07    89s
  25   3.24110428e+01  3.20451266e+01  4.79e-10 1.07e-13  9.05e-08    91s
  26   3.23601692e+01  3.20812162e+01  3.57e-10 1.03e-13  6.90e-08    93s
  27   3.23294211e+01  3.20957381e+01  2.84e-10 9.95e-14  5.78e-08    95s
  28   3.22973051e+01  3.21206183e+01  2.16e-10 9.33e-14  4.37e-08    97s
  29   3.22855185e+01  3.21476034e+01  1.90e-10 1.47e-13  3.41e-08    99s
  30   3.22712412e+01  3.21551539e+01  3.22e-10 3.24e-14  2.87e-08   100s
  31   3.22542196e+01  3.21656669e+01  2.44e-10 8.26e-14  2.19e-08   102s
  32   3.22413095e+01  3.21756210e+01  5.91e-10 1.31e-13  1.63e-08   104s
  33   3.22362844e+01  3.21845416e+01  4.88e-10 1.05e-13  1.28e-08   107s
  34   3.22329887e+01  3.21859478e+01  4.22e-10 1.12e-13  1.16e-08   108s
  35   3.22253912e+01  3.21906161e+01  2.74e-10 5.15e-14  8.60e-09   111s
  36   3.22241592e+01  3.21958656e+01  2.57e-10 5.24e-14  7.00e-09   113s
  37   3.22227774e+01  3.21962856e+01  2.29e-10 9.59e-14  6.56e-09   114s
  38   3.22208343e+01  3.21976004e+01  1.91e-10 9.06e-14  5.75e-09   116s
  39   3.22204740e+01  3.22007012e+01  1.84e-10 4.97e-14  4.89e-09   119s
  40   3.22187234e+01  3.22018974e+01  1.51e-10 4.26e-14  4.16e-09   122s
  41   3.22174801e+01  3.22026900e+01  1.25e-10 4.62e-14  3.66e-09   124s
  42   3.22157002e+01  3.22036074e+01  8.90e-11 1.15e-13  2.99e-09   127s
  43   3.22152034e+01  3.22050431e+01  7.90e-11 3.73e-14  2.51e-09   130s
  44   3.22141751e+01  3.22058237e+01  5.81e-11 5.86e-14  2.07e-09   132s
  45   3.22132912e+01  3.22064512e+01  4.03e-11 1.05e-13  1.69e-09   135s
  46   3.22129985e+01  3.22069437e+01  3.44e-11 6.93e-14  1.50e-09   138s
  47   3.22129363e+01  3.22070634e+01  3.32e-11 3.02e-14  1.45e-09   140s
  48   3.22126279e+01  3.22072380e+01  2.71e-11 4.97e-14  1.33e-09   142s
  49   3.22121261e+01  3.22090640e+01  2.92e-10 7.11e-14  7.58e-10   145s
  50   3.22115685e+01  3.22094081e+01  1.07e-10 1.12e-13  5.35e-10   147s
  51   3.22114458e+01  3.22098883e+01  6.72e-11 7.99e-14  3.85e-10   150s
  52   3.22112957e+01  3.22100971e+01  1.86e-10 9.95e-14  2.97e-10   152s
  53   3.22112866e+01  3.22101700e+01  3.08e-10 8.35e-14  2.76e-10   155s
  54   3.22112809e+01  3.22103409e+01  2.75e-10 1.79e-13  2.33e-10   156s
  55   3.22112571e+01  3.22103794e+01  6.77e-11 1.23e-13  2.17e-10   158s
  56   3.22112547e+01  3.22104323e+01  6.38e-11 9.59e-14  2.03e-10   160s
  57   3.22112544e+01  3.22104388e+01  7.79e-11 1.33e-13  2.02e-10   161s
  58   3.22112509e+01  3.22104632e+01  8.72e-10 1.24e-13  1.95e-10   163s
  59   3.22112458e+01  3.22106072e+01  5.59e-10 1.35e-13  1.58e-10   165s
  60   3.22112455e+01  3.22106782e+01  3.30e-09 2.15e-13  1.40e-10   167s
  61   3.22112460e+01  3.22106816e+01  4.84e-09 2.38e-13  1.40e-10   169s
  62   3.22112444e+01  3.22107364e+01  4.11e-09 2.04e-13  1.26e-10   171s
  63   3.22112436e+01  3.22108099e+01  3.72e-09 9.06e-14  1.07e-10   173s
  64   3.22112416e+01  3.22108647e+01  3.44e-09 6.84e-14  9.33e-11   175s
  65   3.22112467e+01  3.22108761e+01  6.05e-09 5.15e-14  9.17e-11   176s
  66   3.22112460e+01  3.22109027e+01  5.52e-09 1.21e-13  8.50e-11   178s
  67   3.22112454e+01  3.22109218e+01  4.98e-09 1.01e-13  8.01e-11   180s
  68   3.22112429e+01  3.22109428e+01  3.69e-09 7.28e-14  7.43e-11   182s
  69   3.22112410e+01  3.22110504e+01  2.50e-09 8.53e-14  4.72e-11   184s
  70   3.22112409e+01  3.22111634e+01  4.35e-09 1.79e-13  1.92e-11   186s
  71   3.22112396e+01  3.22112050e+01  2.14e-09 9.24e-14  8.57e-12   188s
  72   3.22112387e+01  3.22112183e+01  1.05e-08 6.22e-14  5.05e-12   190s
  73   3.22112370e+01  3.22112368e+01  2.18e-09 4.25e-13  5.22e-14   191s

Barrier solved model in 73 iterations and 191.50 seconds (131.37 work units)
Optimal objective 3.22112370e+01


Root crossover log...

  282882 DPushes remaining with DInf 0.0000000e+00               194s
     279 DPushes remaining with DInf 0.0000000e+00               195s
       0 DPushes remaining with DInf 0.0000000e+00               196s

  194678 PPushes remaining with PInf 3.0898497e-05               196s
  105782 PPushes remaining with PInf 2.2119405e-05               200s
   49259 PPushes remaining with PInf 2.2119405e-05               207s
   35990 PPushes remaining with PInf 2.2119405e-05               211s
   24563 PPushes remaining with PInf 2.2119405e-05               216s
   16077 PPushes remaining with PInf 2.2119405e-05               220s
    9758 PPushes remaining with PInf 2.2119405e-05               226s
    3984 PPushes remaining with PInf 2.2119405e-05               230s
      44 PPushes remaining with PInf 2.2119405e-05               236s
       0 PPushes remaining with PInf 0.0000000e+00               243s

  Push phase complete: Pinf 0.0000000e+00, Dinf 7.5615173e-02    243s


Root simplex log...

Iteration    Objective       Primal Inf.    Dual Inf.      Time
  215921    3.2211237e+01   0.000000e+00   7.561517e-02    253s
  216159    3.2211237e+01   0.000000e+00   0.000000e+00    262s
  216159    3.2211237e+01   0.000000e+00   0.000000e+00    272s

Root relaxation: objective 3.221124e+01, 216159 iterations, 229.06 seconds (166.70 work units)

    Nodes    |    Current Node    |     Objective Bounds      |     Work
 Expl Unexpl |  Obj  Depth IntInf | Incumbent    BestBd   Gap | It/Node Time

     0     0   32.21124    0    6          -   32.21124      -     -  273s
H    0     0                      39.4158296   32.21124  18.3%     -  467s
H    0     0                      34.5040143   32.21124  6.64%     -  565s
     0     0   32.50644    0    3   34.50401   32.50644  5.79%     - 1310s
     0     0   32.50720    0    3   34.50401   32.50720  5.79%     - 1369s
     0     0   32.52024    0    3   34.50401   32.52024  5.75%     - 1602s
     0     0   32.52024    0    3   34.50401   32.52024  5.75%     - 1642s
     0     0   32.52024    0    3   34.50401   32.52024  5.75%     - 1807s
H    0     0                      34.5040143   32.52024  5.75%     - 1838s
H    0     0                      34.4278541   32.52024  5.54%     - 2876s
     0     2   32.52024    0    3   34.42785   32.52024  5.54%     - 2897s
     1     4   33.44370    1    4   34.42785   32.52150  5.54% 51212 3524s
     3     4   33.70716    2    3   34.42785   33.31727  3.23% 28237 5321s
     7     6   34.38738    3    3   34.42785   33.64816  2.26% 43722 5989s

Cutting planes:
  Gomory: 2
  MIR: 18868
  Relax-and-lift: 42

Explored 11 nodes (602744 simplex iterations) in 5990.27 seconds (11469.27 work units)
Thread count was 36 (of 36 available processors)

Solution count 3: 34.4279 34.504 39.4158 

Optimal solution found (tolerance 1.00e-02)
Best objective 3.442785406353e+01, best bound 3.408926491431e+01, gap 0.9835%
Termination condition:  optimal
# ==========================================================
# = Solver Results                                         =
# ==========================================================
# ----------------------------------------------------------
#   Problem Information
# ----------------------------------------------------------
Problem: 
- Name: x1
  Lower bound: 34.089264914306156
  Upper bound: 34.42785406353158
  Number of objectives: 1
  Number of constraints: 3887523
  Number of variables: 2254155
  Number of binary variables: 39
  Number of integer variables: 39
  Number of continuous variables: 2254116
  Number of nonzeros: 10466196
  Sense: minimize
# ----------------------------------------------------------
#   Solver Information
# ----------------------------------------------------------
Solver: 
- Status: ok
  Return code: 0
  Message: Model was solved to optimality (subject to tolerances), and an optimal solution is available.
  Termination condition: optimal
  Termination message: Model was solved to optimality (subject to tolerances), and an optimal solution is available.
  Wall time: 5990.328505992889
  Error rc: 0
  Time: 6014.647926568985
# ----------------------------------------------------------
#   Solution Information
# ----------------------------------------------------------
Solution: 
- number of solutions: 0
  number of solutions displayed: 0
# ============================================================================= #
# ============================================================================= #
fixing: vNetworkInvest[2030,N_113,N_123,cac1]
fixing: vNetworkInvest[2030,N_104,N_109,cac1]
fixing: vNetworkInvest[2030,N_112,N_113,cac1]
fixing: vNetworkInvest[2030,N_107,N_108,cac1]
fixing: vNetworkInvest[2030,N_120,N_123,cac1]
fixing: vNetworkInvest[2030,N_115,N_121,cac1]
fixing: vNetworkInvest[2030,N_112,N_123,cac1]
fixing: vNetworkInvest[2030,N_118,N_121,cac2]
fixing: vNetworkInvest[2030,N_101,N_102,cac1]
fixing: vNetworkInvest[2030,N_110,N_111,cac1]
fixing: vNetworkInvest[2030,N_117,N_118,cac1]
fixing: vNetworkInvest[2030,N_121,N_122,cac1]
fixing: vNetworkInvest[2030,N_103,N_109,cac1]
fixing: vNetworkInvest[2030,N_118,N_121,cac1]
fixing: vNetworkInvest[2030,N_110,N_112,cac1]
fixing: vNetworkInvest[2030,N_102,N_104,cac1]
fixing: vNetworkInvest[2030,N_109,N_112,cac1]
fixing: vNetworkInvest[2030,N_111,N_113,cac1]
fixing: vNetworkInvest[2030,N_109,N_111,cac1]
fixing: vNetworkInvest[2030,N_119,N_120,cac2]
fixing: vNetworkInvest[2030,N_105,N_110,cac1]
fixing: vNetworkInvest[2030,N_102,N_106,cac1]
fixing: vNetworkInvest[2030,N_108,N_110,cac1]
fixing: vNetworkInvest[2030,N_101,N_105,cac1]
fixing: vNetworkInvest[2030,N_120,N_123,cac2]
fixing: vNetworkInvest[2030,N_116,N_117,cac1]
fixing: vNetworkInvest[2030,N_115,N_124,cac1]
fixing: vNetworkInvest[2030,N_119,N_120,cac1]
fixing: vNetworkInvest[2030,N_117,N_122,cac1]
fixing: vNetworkInvest[2030,N_115,N_116,cac1]
fixing: vNetworkInvest[2030,N_115,N_121,cac2]
fixing: vNetworkInvest[2030,N_116,N_119,cac1]
fixing: vNetworkInvest[2030,N_103,N_124,cac1]
fixing: vNetworkInvest[2030,N_101,N_103,cac1]
fixing: vNetworkInvest[2030,N_114,N_116,cac1]
fixing: vNetworkInvest[2030,N_106,N_108,cac1]
fixing: vNetworkInvest[2030,N_106,N_110,cac1]
fixing: vNetworkInvest[2030,N_111,N_114,cac1]
fixing: vNetworkInvest[2030,N_108,N_109,cac1]
Number of fixed variables:  39
# ============================================================================= #
# ============================================================================= #
WARNING: Implicitly replacing the Component attribute dual (type=<class
'pyomo.core.base.suffix.Suffix'>) on block 'openStarNet - Open Version of the
StartNetLite Model (Long Term Transmission Expansion Planning) - Version 1.0.0
- January 16, 2023' with a new Component (type=<class
'pyomo.core.base.suffix.Suffix'>). This is usually indicative of a modelling
error. To avoid this warning, use block.del_component() and
block.add_component().
WARNING: Implicitly replacing the Component attribute rc (type=<class
'pyomo.core.base.suffix.Suffix'>) on block 'openStarNet - Open Version of the
StartNetLite Model (Long Term Transmission Expansion Planning) - Version 1.0.0
- January 16, 2023' with a new Component (type=<class
'pyomo.core.base.suffix.Suffix'>). This is usually indicative of a modelling
error. To avoid this warning, use block.del_component() and
block.add_component().
# ==========================================================
# = Solver Results                                         =
# ==========================================================
# ----------------------------------------------------------
#   Problem Information
# ----------------------------------------------------------
Problem: 
- Name: x1
  Lower bound: 34.42785406353164
  Upper bound: 34.42785406353164
  Number of objectives: 1
  Number of constraints: 3887523
  Number of variables: 2254116
  Number of binary variables: 0
  Number of integer variables: 0
  Number of continuous variables: 2254116
  Number of nonzeros: 9103341
  Sense: minimize
# ----------------------------------------------------------
#   Solver Information
# ----------------------------------------------------------
Solver: 
- Status: ok
  Return code: 0
  Message: Model was solved to optimality (subject to tolerances), and an optimal solution is available.
  Termination condition: optimal
  Termination message: Model was solved to optimality (subject to tolerances), and an optimal solution is available.
  Wall time: 114.40263509750366
  Error rc: 0
  Time: 150.94755220413208
# ----------------------------------------------------------
#   Solution Information
# ----------------------------------------------------------
Solution: 
- number of solutions: 0
  number of solutions displayed: 0
Solving                               ...  6377 s
Objective function value                   34.43 M€
Objective function value                   34.42785406353164
Writing         cost summary results  ...  0 s
Writing           investment results  ...  0 s
Writing       energy balance results  ...  128 s
Writing    network operation results  ...  7 s
Writing generation operation results  ...  14 s
Writing        ESS operation results  ...  0 s
Writing             economic results  ...  1 s

 #### Academic research license - for non-commercial use only #### 

Elapsed time: 6720 seconds
